c Command line: hgen8 145 30
p cnf 145 227
109 108 56 131 0
122 35 116 25 0
63 114 83 18 0
33 77 52 40 0
29 65 84 44 0
135 59 37 58 0
1 22 67 9 0
3 81 10 13 0
92 34 39 89 0
93 20 123 103 0
41 120 121 19 0
111 27 14 97 0
142 42 98 8 0
68 78 47 61 0
107 136 138 6 0
70 100 115 64 0
110 96 129 60 0
49 53 139 43 0
124 54 132 57 0
74 76 99 141 0
30 88 143 91 0
105 118 45 38 0
117 145 119 7 0
32 28 130 85 0
69 24 94 101 0
82 75 23 4 0
62 11 102 79 0
26 50 125 126 0
90 137 72 104 0
48 87 31 113 0
-1 -3 0
-1 -4 0
-3 -4 0
-6 -7 0
-6 -8 0
-6 -9 0
-6 -10 0
-7 -8 0
-7 -9 0
-7 -10 0
-8 -9 0
-8 -10 0
-9 -10 0
-11 -13 0
-11 -14 0
-13 -14 0
-18 -19 0
-18 -20 0
-19 -20 0
-22 -23 0
-22 -24 0
-22 -25 0
-23 -24 0
-23 -25 0
-24 -25 0
-26 -27 0
-26 -28 0
-26 -29 0
-26 -30 0
-27 -28 0
-27 -29 0
-27 -30 0
-28 -29 0
-28 -30 0
-29 -30 0
-31 -32 0
-31 -33 0
-31 -34 0
-31 -35 0
-32 -33 0
-32 -34 0
-32 -35 0
-33 -34 0
-33 -35 0
-34 -35 0
-37 -38 0
-37 -39 0
-37 -40 0
-38 -39 0
-38 -40 0
-39 -40 0
-41 -42 0
-41 -43 0
-41 -44 0
-41 -45 0
-42 -43 0
-42 -44 0
-42 -45 0
-43 -44 0
-43 -45 0
-44 -45 0
-47 -48 0
-47 -49 0
-47 -50 0
-48 -49 0
-48 -50 0
-49 -50 0
-52 -53 0
-52 -54 0
-53 -54 0
-56 -57 0
-56 -58 0
-56 -59 0
-56 -60 0
-57 -58 0
-57 -59 0
-57 -60 0
-58 -59 0
-58 -60 0
-59 -60 0
-61 -62 0
-61 -63 0
-61 -64 0
-61 -65 0
-62 -63 0
-62 -64 0
-62 -65 0
-63 -64 0
-63 -65 0
-64 -65 0
-67 -68 0
-67 -69 0
-67 -70 0
-68 -69 0
-68 -70 0
-69 -70 0
-72 -74 0
-72 -75 0
-74 -75 0
-76 -77 0
-76 -78 0
-76 -79 0
-77 -78 0
-77 -79 0
-78 -79 0
-81 -82 0
-81 -83 0
-81 -84 0
-81 -85 0
-82 -83 0
-82 -84 0
-82 -85 0
-83 -84 0
-83 -85 0
-84 -85 0
-87 -88 0
-87 -89 0
-87 -90 0
-88 -89 0
-88 -90 0
-89 -90 0
-91 -92 0
-91 -93 0
-91 -94 0
-92 -93 0
-92 -94 0
-93 -94 0
-96 -97 0
-96 -98 0
-96 -99 0
-96 -100 0
-97 -98 0
-97 -99 0
-97 -100 0
-98 -99 0
-98 -100 0
-99 -100 0
-101 -102 0
-101 -103 0
-101 -104 0
-101 -105 0
-102 -103 0
-102 -104 0
-102 -105 0
-103 -104 0
-103 -105 0
-104 -105 0
-107 -108 0
-107 -109 0
-107 -110 0
-108 -109 0
-108 -110 0
-109 -110 0
-111 -113 0
-111 -114 0
-111 -115 0
-113 -114 0
-113 -115 0
-114 -115 0
-116 -117 0
-116 -118 0
-116 -119 0
-116 -120 0
-117 -118 0
-117 -119 0
-117 -120 0
-118 -119 0
-118 -120 0
-119 -120 0
-121 -122 0
-121 -123 0
-121 -124 0
-121 -125 0
-122 -123 0
-122 -124 0
-122 -125 0
-123 -124 0
-123 -125 0
-124 -125 0
-126 -129 0
-126 -130 0
-129 -130 0
-131 -132 0
-131 -135 0
-132 -135 0
-136 -137 0
-136 -138 0
-136 -139 0
-137 -138 0
-137 -139 0
-138 -139 0
-141 -142 0
-141 -143 0
-141 -145 0
-142 -143 0
-142 -145 0
-143 -145 0
